NAME: tsp_363
COMMENT: Random TSP instance
TYPE: TSP
DIMENSION: 50
EDGE_WEIGHT_TYPE: EUC_2D
NODE_COORD_SECTION
1 85 813
2 333 386
3 960 111
4 528 255
5 637 900
6 339 711
7 228 456
8 286 338
9 106 920
10 800 389
11 939 771
12 71 33
13 274 722
14 267 54
15 49 779
16 564 668
17 57 396
18 575 431
19 150 661
20 974 391
21 54 424
22 146 984
23 717 295
24 445 443
25 358 711
26 443 673
27 645 704
28 601 9
29 763 512
30 897 499
31 177 351
32 156 340
33 773 420
34 628 184
35 729 690
36 970 993
37 608 439
38 873 841
39 104 996
40 150 370
41 845 751
42 124 342
43 8 133
44 868 155
45 697 137
46 396 835
47 400 547
48 107 491
49 79 840
50 797 293
